nApps = 206
nRes = 9
nActs = 406
nNetworks = 6

assignmentToResources = [1,1,3,2,1,2,3,2,2,2,3,2,3,2,1,2,2,3,2,1,2,2,2,1,2,2,1,3,1,3,1,3,1,3,2,3,1,2,2,1,1,3,2,1,2,1,3,3,1,3,2,3,1,3,1,3,2,1,2,2,3,3,2,2,3,2,2,2,2,2,2,2,3,2,3,1,3,1,1,3,3,2,1,3,3,2,3,1,3,3,3,2,3,2,2,3,3,3,3,2,4,4,4,4,6,6,5,4,4,4,4,5,5,6,6,6,5,5,5,5,5,5,5,5,6,6,5,5,4,4,4,4,5,5,5,5,6,6,6,5,5,5,5,5,5,5,5,5,5,4,4,4,4,4,6,4,4,6,6,4,4,4,4,6,6,6,4,4,6,5,6,4,5,5,4,4,4,4,6,5,4,4,4,4,6,6,6,5,6,4,4,4,6,6,6,4,6,6,6,5,5,5,6,6,6,6,6,5,5,5,5,5,5,5,5,5,4,6,4,4,6,6,6,6,6,6,5,5,6,6,6,5,5,5,6,5,5,7,4,9,5,9,4,9,6,8,5,7,5,9,5,7,6,7,5,9,4,8,4,9,6,7,5,9,6,7,5,7,5,7,9,9,9,8,8,8,7,9,9,8,8,9,7,8,8,7,9,7,7,9,9,9,7,7,7,7,9,7,8,9,9,8,9,9,9,7,7,7,8,9,9,9,7,9,9,7,7,9,9,8,9,9,9,8,8,9,8,8,7,8,9,8,8,7,7,8,9,8,7,7,8,8,7,9,9,9,9,8,8,9,9,9,9,9,8,7,8,9,8,8,8,8,8,7,7,8,7,7,8,9,7,7,8,7,8,7,8,9,9,9,7,7,9,9,7,9,9,7,8,9,8,8,7,8,8,7,7,9,8,8,8,9,9,7,8,9];

processingTimes = [128,112,96,56,80,152,136,48,128,64,136,120,160,64,128,40,152,80,104,136,120,120,56,72,128,128,112,112,120,72,112,128,64,136,160,112,56,152,88,128,80,120,80,56,120,128,104,112,128,48,64,104,88,120,128,136,128,128,56,136,88,48,152,144,160,128,168,128,104,120,56,96,136,120,96,120,104,144,104,128,80,48,112,80,104,168,72,112,120,48,120,128,72,120,72,80,120,56,120,104,3,3,8,4,500,3,3,4,4,4,500,3,3,4,8,3,500,4,3,4,4,7,4,4,8,8,3,3,500,4,500,8,4,3,500,3,11,200,5,500,3,5,500,3,3,8,8,3,3,3,3,3,3,4,500,4,4,23,4,3,3,3,3,4,4,4,3,500,4,3,4,4,3,3,4,3,4,500,3,500,13,3,3,8,500,3,500,3,3,500,500,3,4,5,5,3,5,5,3,4,3,500,3,3,100,100,3,3,500,3,8,8,4,100,100,100,500,5,100,4,4,3,3,3,3,500,5,5,4,4,4,4,3,4,8,8,500,500,500,500,500,500,4,4,5,5,3,3,4,4,500,500,500,500,500,500,500,500,500,500,500,500,3,3,3,3,3,3,4,4,3,3,8,4,500,3,3,4,4,4,500,3,3,4,8,3,500,4,3,4,4,7,4,4,8,8,3,3,500,4,500,8,4,3,500,3,11,200,5,500,3,5,500,3,3,8,8,3,3,3,3,3,3,4,500,4,4,23,4,3,3,3,3,4,4,4,3,500,4,3,4,4,3,3,4,3,4,500,3,500,13,3,3,8,500,3,500,3,3,500,500,3,4,5,5,3,5,5,3,4,3,500,3,3,100,100,3,3,500,3,8,8,4,100,100,100,500,5,100,4,4,3,3,3,3,500,5,5,4,4,4,4,3,4,8,8];

periods = [10000,5000,100000,5000,20000,100000,100000,100000,10000,20000,20000,20000,5000,100000,20000,100000,20000,2000,10000,5000,100000,20000,1000,10000,100000,100000,20000,10000,10000,20000,10000,5000,20000,20000,10000,10000,20000,100000,100000,20000,10000,20000,100000,10000,10000,5000,10000,10000,20000,100000,100000,20000,100000,50000,50000,20000,100000,2000,100000,20000,100000,1000,100000,5000,10000,10000,20000,100000,20000,20000,100000,20000,20000,1000,100000,10000,20000,1000,10000,10000,10000,100000,100000,5000,20000,10000,20000,10000,20000,20000,20000,100000,20000,10000,100000,100000,100000,100000,1000,10000,10000,10000,5000,5000,100000,100000,5000,20000,20000,20000,20000,100000,100000,100000,100000,100000,100000,100000,100000,10000,10000,20000,20000,20000,20000,20000,20000,20000,20000,20000,20000,20000,100000,20000,20000,20000,2000,2000,2000,10000,10000,100000,20000,20000,1000,1000,1000,1000,1000,10000,10000,20000,20000,20000,10000,10000,10000,20000,20000,10000,10000,10000,10000,5000,5000,5000,20000,20000,20000,10000,10000,20000,100000,100000,20000,20000,10000,10000,20000,100000,10000,5000,5000,5000,100000,100000,100000,100000,20000,100000,100000,100000,50000,50000,50000,50000,20000,20000,20000,100000,100000,20000,100000,1000,1000,1000,10000,20000,20000,20000,100000,100000,20000,1000,1000,1000,10000,20000,1000,1000,10000,5000,5000,5000,20000,20000,100000,100000,20000,20000,20000,10000,100000,100000,100000,10000,10000,10000,10000,10000,10000,10000,5000,5000,5000,5000,5000,5000,20000,20000,10000,10000,10000,10000,10000,10000,10000,10000,10000,10000,10000,10000,10000,10000,10000,10000,100000,100000,100000,100000,10000,10000,5000,5000,100000,100000,5000,20000,20000,20000,20000,100000,100000,100000,100000,100000,100000,100000,100000,10000,10000,20000,20000,20000,20000,20000,20000,20000,20000,20000,20000,20000,100000,20000,20000,20000,2000,2000,2000,10000,10000,100000,20000,20000,1000,1000,1000,1000,1000,10000,10000,20000,20000,20000,10000,10000,10000,20000,20000,10000,10000,10000,10000,5000,5000,5000,20000,20000,20000,10000,10000,20000,100000,100000,20000,20000,10000,10000,20000,100000,10000,5000,5000,5000,100000,100000,100000,100000,20000,100000,100000,100000,50000,50000,50000,50000,20000,20000,20000,100000,100000,20000,100000,1000,1000,1000,10000,20000,20000,20000,100000,100000,20000,1000,1000,1000,10000,20000,1000,1000,10000,5000,5000,5000,20000,20000,100000,100000,20000,20000,20000,10000,100000,100000,100000,10000];

assignmentToClusters = [1,2,3,2,4,5,6,7,1,8,9,10,2,5,11,12,13,14,15,16,5,17,18,19,5,5,20,21,22,23,24,25,26,10,27,15,28,5,5,29,30,31,32,15,33,2,15,1,34,35,5,36,37,38,39,40,41,42,43,44,45,46,5,47,48,48,49,50,51,52,5,10,53,54,55,15,56,57,15,1,58,5,50,59,60,15,61,48,62,63,64,50,65,1,5,66,67,68,69,70,71,72,73,74,75,76,77,78,79,80,81,82,83,84,85,86,87,88,89,90,91,92,93,94,95,96,97,98,99,100,101,102,103,104,105,106,107,108,109,110,111,112,113,114,115,116,117,118,119,120,121,122,123,124,125,126,127,128,129,130,131,132,133,134,135,136,137,138,139,140,141,142,143,144,145,146,147,148,149,150,151,152,153,154,155,156,157,158,159,160,161,162,163,164,165,166,167,168,169,170,171,172,173,174,175,176,177,178,179,180,181,182,183,184,185,186,187,188,189,190,191,192,193,194,195,196,197,198,199,200,201,202,203,204,205,206,1,1,1,1,1,1,2,2,2,2,2,2,10,10,15,15,15,15,15,15,15,15,15,15,15,15,48,48,48,48,50,50,50,50,71,72,73,74,75,76,77,78,79,80,81,82,83,84,85,86,87,88,89,90,91,92,93,94,95,96,97,98,99,100,101,102,103,104,105,106,107,108,109,110,111,112,113,114,115,116,117,118,119,120,121,122,123,124,125,126,127,128,129,130,131,132,133,134,135,136,137,138,139,140,141,142,143,144,145,146,147,148,149,150,151,152,153,154,155,156,157,158,159,160,161,162,163,164,165,166,167,168,169,170,171,172,173,174,175,176,177,178,179,180,181,182,183,184,185,186,187,188,189,190,191,192,193,194,195,196,197,198,199,200,201,202,203,204,205,206];

precedenceAdjList = [[237],[],[],[245],[],[62],[],[],[],[],[],[71],[243],[5],[],[],[],[],[],[],[5],[],[],[],[94],[37],[],[],[],[],[],[],[],[249],[],[255],[],[],[],[],[],[],[],[],[],[247],[259],[79,239],[],[],[],[],[],[],[],[],[],[],[],[],[],[],[50,25],[],[263],[],[],[],[],[],[62],[],[],[],[],[261],[],[],[251,253],[241],[],[13],[267,269],[],[],[257],[],[265],[],[],[],[],[],[],[81,38],[],[],[],[],[],[],[],[],[],[],[],[],[],[],[],[],[],[],[],[],[],[],[],[],[],[],[],[],[],[],[],[],[],[],[],[],[],[],[],[],[],[],[],[],[],[],[],[],[],[],[],[],[],[],[],[],[],[],[],[],[],[],[],[],[],[],[],[],[],[],[],[],[],[],[],[],[],[],[],[],[],[],[],[],[],[],[],[],[],[],[],[],[],[],[],[],[],[],[],[],[],[],[],[],[],[],[],[],[],[],[],[],[],[],[],[],[],[],[],[],[],[],[],[],[],[],[],[],[],[],[],[],[],[],[],[],[],[],[],[],[],[93],[236],[0],[238],[8],[240],[1],[242],[12],[244],[3],[246],[11],[248],[18],[250],[35],[252],[85],[254],[43],[256],[78],[258],[46],[260],[65],[262],[64],[264],[91],[266],[67],[268],[100],[101],[102],[103],[104],[105],[106],[107],[108],[109],[110],[111],[112],[113],[114],[115],[116],[117],[118],[119],[120],[121],[122],[123],[124],[125],[126],[127],[128],[129],[130],[131],[132],[133],[134],[135],[136],[137],[138],[139],[140],[141],[142],[143],[144],[145],[146],[147],[148],[149],[150],[151],[152],[153],[154],[155],[156],[157],[158],[159],[160],[161],[162],[163],[164],[165],[166],[167],[168],[169],[170],[171],[172],[173],[174],[175],[176],[177],[178],[179],[180],[181],[182],[183],[184],[185],[186],[187],[188],[189],[190],[191],[192],[193],[194],[195],[196],[197],[198],[199],[200],[201],[202],[203],[204],[205],[206],[207],[208],[209],[210],[211],[212],[213],[214],[215],[216],[217],[218],[219],[220],[221],[222],[223],[224],[225],[226],[227],[228],[229],[230],[231],[232],[233],[234],[235]];